c   #vars: 122   #clauses: 555   #literals: 1516
c 
p cnf 122 555
-1 -2 0
-3 -4 0
95 96 109 110 0
71 72 95 96 0
-5 -6 0
-7 -8 0
-9 -10 0
14 111 112 -115 0
-12 -13 0
15 32 33 -71 0
20 -58 68 69 0
-16 -17 0
-18 -19 0
-21 -22 0
-23 -24 0
-25 -26 0
-27 -28 0
7 8 -39 42 0
-30 -31 0
-32 -33 0
-34 -35 0
-36 -37 0
18 19 119 120 0
40 41 119 120 0
-38 -39 0
-40 -41 0
49 87 88 -115 0
-43 -44 0
-45 -46 0
-47 -48 0
54 -82 109 110 0
-50 -51 0
-52 -53 0
32 33 59 -64 0
-55 -56 0
30 31 103 104 0
93 94 103 104 0
-57 -58 0
36 37 70 -82 0
-60 -61 0
25 26 60 61 0
-62 -63 0
-64 -65 0
-66 -67 0
-68 -69 0
62 63 87 88 0
77 78 87 88 0
49 -87 115 116 0
60 61 81 -84 0
-71 -72 0
-73 -74 0
-75 -76 0
-77 -78 0
-79 -80 0
55 56 86 -95 0
-82 -83 0
-84 -85 0
-87 -88 0
-89 -90 0
-91 -92 0
-93 -94 0
-95 -96 0
-97 -98 0
-99 -100 0
-101 -102 0
-103 -104 0
-105 -106 0
-107 -108 0
1 2 50 51 0
-109 -110 0
-111 -112 0
-113 -114 0
-115 -116 0
7 8 103 104 0
-117 -118 0
-119 -120 0
9 10 121 122 0
-121 -122 0
18 19 21 22 0
-1 -7 0
-2 -8 0
23 24 47 48 0
-1 -16 0
-2 -17 0
21 22 27 28 0
-1 -25 0
-2 -26 0
-1 -50 0
-2 -51 0
18 19 73 74 0
-1 -71 0
-2 -72 0
18 19 47 48 0
-1 -119 0
-2 -120 0
-3 -16 0
-4 -17 0
9 10 75 76 0
-3 -23 0
-4 -24 0
66 67 99 100 0
7 8 79 80 0
-3 -79 0
-4 -80 0
77 78 105 106 0
-3 -89 0
-4 -90 0
43 44 77 78 0
55 56 77 78 0
3 4 16 17 0
-5 -43 0
-6 -44 0
16 17 47 48 0
-5 -101 0
-6 -102 0
-5 -103 0
-6 -104 0
-8 11 -20 42 0
-5 -117 0
-6 -118 0
5 6 121 122 0
-5 -121 0
-6 -122 0
-7 -34 0
-8 -35 0
73 74 119 120 0
-7 -42 0
49 -62 88 0
43 44 52 53 0
-7 -50 0
-8 -51 0
82 83 97 98 0
-7 -79 0
-8 -80 0
11 -20 -39 42 0
-7 -84 0
-8 -85 0
-7 -101 0
-8 -102 0
103 104 105 106 0
-7 -103 0
-8 -104 0
5 6 43 44 0
-9 -38 0
-10 -39 0
21 22 52 53 0
-9 -50 0
-10 -51 0
62 63 99 100 0
-9 -57 0
-10 -58 0
-9 -75 0
-10 -76 0
91 92 97 98 0
-9 -91 0
-10 -92 0
66 67 103 104 0
-9 -117 0
-10 -118 0
9 10 57 58 0
-9 -121 0
-10 -122 0
1 2 119 120 0
14 -101 111 112 0
45 46 115 116 0
14 101 102 -115 0
49 62 63 -115 0
5 6 103 104 0
14 101 102 -111 0
-11 -65 0
-12 -21 0
-13 -22 0
29 105 106 -111 0
-12 -36 0
-13 -37 0
-12 -43 0
-13 -44 0
54 82 83 -109 0
-34 36 37 70 0
-13 -59 0
113 114 115 116 0
-12 -68 0
-13 -69 0
60 61 107 108 0
-12 -97 0
-13 -98 0
113 114 117 118 0
-12 -113 0
-13 -114 0
21 22 77 78 0
15 -27 32 33 0
-14 -102 0
15 27 28 -71 0
-14 -112 0
15 27 28 -32 0
-14 -116 0
-11 20 68 69 0
-15 -28 0
18 19 113 114 0
20 57 58 -69 0
-15 -33 0
-8 11 42 -64 0
-11 20 57 58 0
-15 -72 0
-16 -47 0
-17 -48 0
107 108 113 114 0
-16 -55 0
-17 -56 0
57 58 68 69 0
-16 -57 0
-17 -58 0
5 6 101 102 0
-18 -21 0
-19 -22 0
14 -101 115 116 0
-18 -47 0
-19 -48 0
30 31 97 98 0
-18 -55 0
-19 -56 0
-18 -73 0
-19 -74 0
30 31 75 76 0
-18 -113 0
-19 -114 0
7 8 84 85 0
-18 -119 0
-19 -120 0
29 -66 111 112 0
-20 -57 0
12 13 59 -64 0
-20 -68 0
75 76 111 112 0
-21 -27 0
-22 -28 0
60 61 66 67 0
-21 -52 0
-22 -53 0
38 39 117 118 0
-21 -77 0
-22 -78 0
38 39 47 48 0
-23 -36 0
-24 -37 0
11 20 -64 -69 0
-23 -47 0
-24 -48 0
64 65 107 108 0
-23 -97 0
-24 -98 0
68 69 117 118 0
-23 -113 0
-24 -114 0
-23 -115 0
-24 -116 0
7 8 101 102 0
-23 -117 0
-24 -118 0
68 69 119 120 0
29 66 67 -105 0
-45 54 82 83 0
29 -66 105 106 0
11 20 -58 -64 0
-25 -60 0
-26 -61 0
91 92 111 112 0
-25 -71 0
-26 -72 0
3 4 23 24 0
-25 -95 0
-26 -96 0
12 13 21 22 0
-25 -109 0
-26 -110 0
-36 70 82 83 0
-27 -40 0
-28 -41 0
11 20 -42 -69 0
-27 -91 0
-28 -92 0
12 13 36 37 0
-27 -105 0
-28 -106 0
14 -111 115 116 0
7 8 -11 42 0
-29 -67 0
68 69 109 110 0
-11 38 39 42 0
-29 -106 0
12 13 113 114 0
-8 38 39 42 0
-29 -112 0
27 28 40 41 0
-30 -66 0
-31 -67 0
27 28 91 92 0
-30 -75 0
-31 -76 0
-30 -97 0
-31 -98 0
40 41 45 46 0
-30 -103 0
-31 -104 0
34 35 40 41 0
-30 -111 0
-31 -112 0
73 74 121 122 0
-30 -121 0
-31 -122 0
66 67 82 83 0
34 35 70 -82 0
-33 -59 0
75 76 81 -84 0
-32 -66 0
-33 -67 0
49 -62 115 116 0
-32 -89 0
-33 -90 0
15 -27 71 72 0
-32 -109 0
-33 -110 0
11 -20 64 65 0
-34 -40 0
-35 -41 0
-34 -62 0
-35 -63 0
29 -105 111 112 0
60 61 -75 81 0
-35 -70 0
1 2 7 8 0
11 20 -42 -58 0
32 33 66 67 0
-75 81 84 85 0
-37 -70 0
-36 -111 0
-37 -112 0
9 10 38 39 0
43 44 89 90 0
-38 -42 0
49 63 -87 0
-60 86 95 96 0
-38 -47 0
-39 -48 0
36 37 111 112 0
-38 -117 0
-39 -118 0
-38 -121 0
-39 -122 0
23 24 36 37 0
-40 -45 0
-41 -46 0
18 19 55 56 0
-40 -113 0
-41 -114 0
55 56 107 108 0
-40 -117 0
-41 -118 0
16 17 55 56 0
-40 -119 0
-41 -120 0
25 26 95 96 0
-43 -52 0
-44 -53 0
30 31 66 67 0
-43 -77 0
-44 -78 0
12 13 43 44 0
-43 -89 0
-44 -90 0
27 28 105 106 0
-12 32 33 59 0
-46 -54 0
-45 -91 0
-46 -92 0
-45 -115 0
-46 -116 0
38 39 121 122 0
-45 54 109 110 0
-49 -63 0
55 56 87 88 0
45 46 54 -109 0
-49 -88 0
11 -39 42 -64 0
45 46 54 -82 0
-49 -116 0
52 53 64 65 0
-50 -93 0
-51 -94 0
15 -32 71 72 0
9 10 91 92 0
-52 -64 0
-53 -65 0
-52 -121 0
-53 -122 0
23 24 97 98 0
-32 59 64 65 0
-54 -83 0
23 24 113 114 0
-12 59 64 65 0
-54 -110 0
16 17 57 58 0
-55 -77 0
-56 -78 0
-56 -86 0
57 58 84 85 0
-55 -87 0
-56 -88 0
32 33 109 110 0
-55 -107 0
-56 -108 0
30 31 111 112 0
29 66 67 -111 0
34 35 62 63 0
-57 -68 0
-58 -69 0
77 78 84 85 0
-57 -84 0
-58 -85 0
-57 -119 0
-58 -120 0
32 33 89 90 0
34 35 -36 70 0
-59 -65 0
-55 86 95 96 0
-60 -66 0
-61 -67 0
79 80 101 102 0
55 56 -60 86 0
-61 -81 0
-61 -86 0
11 -42 64 65 0
-60 -107 0
-61 -108 0
1 2 71 72 0
-62 -68 0
-63 -69 0
25 26 71 72 0
-62 -87 0
-63 -88 0
71 72 99 100 0
-62 -89 0
-63 -90 0
50 51 93 94 0
-62 -99 0
-63 -100 0
52 53 121 122 0
-64 -107 0
-65 -108 0
-66 -82 0
-67 -83 0
7 8 34 35 0
-66 -99 0
-67 -100 0
95 96 105 106 0
-66 -103 0
-67 -104 0
1 2 25 26 0
-68 -109 0
-69 -110 0
40 41 113 114 0
-68 -117 0
-69 -118 0
30 31 121 122 0
-68 -119 0
-69 -120 0
9 10 50 51 0
23 24 117 118 0
-60 81 84 85 0
-70 -83 0
-71 -95 0
-72 -96 0
-71 -99 0
-72 -100 0
73 74 79 80 0
-73 -79 0
-74 -80 0
3 4 89 90 0
-73 -119 0
-74 -120 0
12 13 97 98 0
-73 -121 0
-74 -122 0
7 8 50 51 0
60 61 86 -95 0
-76 -81 0
45 46 91 92 0
-75 -111 0
-76 -112 0
62 63 68 69 0
-77 -84 0
-78 -85 0
3 4 79 80 0
-77 -87 0
-78 -88 0
79 80 99 100 0
-77 -105 0
-78 -106 0
-60 75 76 81 0
-79 -93 0
-80 -94 0
23 24 115 116 0
-79 -99 0
-80 -100 0
12 13 -32 59 0
-79 -101 0
-80 -102 0
-55 60 61 86 0
-81 -85 0
82 83 87 88 0
-82 -87 0
-83 -88 0
40 41 117 118 0
-82 -97 0
-83 -98 0
12 13 68 69 0
-86 -96 0
62 63 89 90 0
-87 -95 0
-88 -96 0
89 90 93 94 0
-89 -93 0
-90 -94 0
79 80 93 94 0
-89 -101 0
-90 -102 0
-34 70 82 83 0
-91 -97 0
-92 -98 0
5 6 117 118 0
-91 -111 0
-92 -112 0
-93 -103 0
-94 -104 0
87 88 95 96 0
-93 -105 0
-94 -106 0
89 90 101 102 0
-95 -105 0
-96 -106 0
1 2 16 17 0
-95 -109 0
-96 -110 0
93 94 105 106 0
-103 -105 0
-104 -106 0
25 26 109 110 0
-107 -113 0
-108 -114 0
57 58 119 120 0
-113 -115 0
-114 -116 0
9 10 117 118 0
-113 -117 0
-114 -118 0
